<number of tasks>
29

<cycle time>
30

<task times>
1 7
2 19
3 15
4 5
5 12
6 10
7 8
8 16
9 2
10 6
11 21
12 10
13 9
14 4
15 14
16 7
17 14
18 17
19 10
20 16
21 1
22 9
23 25
24 14
25 14
26 2
27 10
28 7
29 20

<precedence relations>
1,3
1,25
2,6
2,26
3,4
4,5
5,8
5,13
6,8
7,9
7,12
7,25
8,11
8,16
9,10
10,14
10,15
11,17
12,15
13,17
14,16
15,19
16,18
17,20
18,22
19,21
20,23
21,22
22,23
23,24
23,28
24,29
25,29
26,27
27,29
28,29

<setup times forward>
1,3:4
1,6:2
1,7:4
1,9:4
1,10:2
1,12:2
1,15:1
1,19:4
1,21:2
1,25:5
1,27:2
2,3:4
2,4:4
2,5:2
2,6:2
2,7:4
2,9:4
2,10:2
2,12:2
2,13:3
2,15:1
2,19:4
2,21:2
2,25:5
3,2:4
3,6:2
3,10:6
3,12:6
3,14:4
3,15:3
3,19:8
3,21:2
3,25:9
3,26:4
3,27:2
4,2:4
4,5:6
4,6:2
4,10:6
4,12:6
4,14:4
4,15:3
4,19:8
4,21:2
4,25:9
4,26:4
4,27:2
5,2:2
5,6:4
5,7:6
5,8:3
5,9:6
5,13:1
5,14:2
5,15:3
5,19:2
5,21:4
5,25:3
5,26:2
5,27:4
6,1:2
6,3:2
6,4:2
6,5:4
6,7:2
6,8:1
6,9:2
6,10:4
6,12:4
6,13:5
6,14:2
6,15:1
6,19:6
6,25:7
6,26:2
7,1:4
7,2:4
7,5:6
7,6:2
7,8:3
7,11:7
7,12:6
7,13:7
7,17:8
7,20:2
7,25:9
7,26:4
7,27:2
8,7:3
8,9:3
8,10:3
8,11:4
8,12:3
8,13:4
8,14:1
8,16:1
8,19:5
8,21:1
8,25:6
8,26:1
8,27:1
9,1:4
9,2:4
9,5:6
9,6:2
9,8:3
9,10:6
9,11:7
9,12:6
9,13:7
9,17:8
9,20:2
9,25:9
9,26:4
9,27:2
10,1:2
10,2:2
10,3:6
10,4:6
10,6:4
10,8:3
10,11:1
10,13:1
10,14:2
10,15:3
10,17:2
10,20:4
10,25:3
10,26:2
10,27:4
11,7:7
11,9:7
11,10:1
11,12:1
11,14:3
11,15:4
11,16:3
11,17:1
11,18:3
11,19:1
11,21:5
11,22:5
11,25:2
11,26:3
11,27:5
12,1:2
12,2:2
12,3:6
12,4:6
12,6:4
12,8:3
12,9:6
12,11:1
12,13:1
12,14:2
12,15:3
12,16:2
12,17:2
12,18:2
12,20:4
12,25:3
12,26:2
12,27:4
13,2:3
13,6:5
13,7:7
13,8:4
13,9:7
13,10:1
13,12:1
13,14:3
13,15:4
13,16:3
13,17:1
13,18:3
13,19:1
13,21:5
13,22:5
13,25:2
13,26:3
13,27:5
14,3:4
14,4:4
14,5:2
14,6:2
14,8:1
14,11:3
14,12:2
14,13:3
14,15:1
14,17:4
14,19:4
14,20:2
14,21:2
14,25:5
14,27:2
15,1:1
15,2:1
15,3:3
15,4:3
15,5:3
15,6:1
15,11:4
15,13:4
15,14:1
15,16:1
15,17:5
15,18:1
15,19:5
15,20:1
15,25:6
15,26:1
15,27:1
16,11:3
16,12:2
16,13:3
16,15:1
16,17:4
16,19:4
16,20:2
16,21:2
16,25:5
16,27:2
17,7:8
17,9:8
17,10:2
17,12:2
17,14:4
17,15:5
17,16:4
17,18:4
17,20:6
17,21:6
17,22:6
17,25:1
17,26:4
17,27:6
18,11:3
18,12:2
18,13:3
18,15:1
18,17:4
18,19:4
18,20:2
18,21:2
18,22:2
18,25:5
18,27:2
19,1:4
19,2:4
19,3:8
19,4:8
19,5:2
19,6:6
19,8:5
19,11:1
19,13:1
19,14:4
19,16:4
19,18:4
19,20:6
19,21:6
19,25:1
19,26:4
19,27:6
20,7:2
20,9:2
20,10:4
20,12:4
20,14:2
20,15:1
20,16:2
20,18:2
20,19:6
20,23:4
20,25:7
20,26:2
21,1:2
21,2:2
21,3:2
21,4:2
21,5:4
21,8:1
21,11:5
21,13:5
21,14:2
21,16:2
21,17:6
21,18:2
21,25:7
21,26:2
22,11:5
22,13:5
22,17:6
22,23:4
22,25:7
22,26:2
23,24:3
23,25:3
23,26:2
23,27:4
23,28:1
24,26:5
24,27:7
24,28:4
24,29:4
25,2:5
25,3:9
25,4:9
25,5:3
25,6:7
25,8:6
25,9:9
25,10:3
25,11:2
25,12:3
25,13:2
25,14:5
25,15:6
25,16:5
25,17:1
25,18:5
25,19:1
25,20:7
25,21:7
25,22:7
25,23:3
25,26:5
25,27:7
25,28:4
25,29:4
26,3:4
26,4:4
26,5:2
26,6:2
26,7:4
26,8:1
26,9:4
26,10:2
26,11:3
26,12:2
26,13:3
26,15:1
26,17:4
26,19:4
26,20:2
26,21:2
26,22:2
26,23:2
26,24:5
26,25:5
26,27:2
26,28:1
27,1:2
27,3:2
27,4:2
27,5:4
27,7:2
27,8:1
27,9:2
27,10:4
27,11:5
27,12:4
27,13:5
27,14:2
27,15:1
27,16:2
27,17:6
27,18:2
27,19:6
27,23:4
27,24:7
27,25:7
27,28:3
27,29:3
28,24:4
28,25:4
28,26:1
28,27:3

<setup times backward>
1,10:2
1,12:2
1,19:4
2,5:2
2,10:2
2,12:2
2,13:3
2,19:4
2,25:5
3,1:4
3,2:4
3,6:2
3,10:6
3,12:6
3,14:4
3,15:3
3,19:8
3,21:2
3,25:9
3,26:4
3,27:2
4,1:4
4,2:4
4,6:2
4,10:6
4,12:6
4,14:4
4,15:3
4,19:8
4,21:2
4,25:9
4,26:4
4,27:2
5,19:2
5,25:3
6,1:2
6,2:2
6,5:4
6,10:4
6,12:4
6,13:5
6,14:2
6,15:1
6,19:6
6,25:7
6,26:2
7,1:4
7,2:4
7,5:6
7,6:2
7,8:3
7,11:7
7,13:7
7,17:8
7,20:2
7,26:4
7,27:2
8,1:1
8,2:1
8,5:3
8,10:3
8,12:3
8,13:4
8,14:1
8,19:5
8,25:6
8,26:1
9,1:4
9,2:4
9,5:6
9,6:2
9,8:3
9,11:7
9,12:6
9,13:7
9,17:8
9,20:2
9,25:9
9,26:4
9,27:2
10,11:1
10,13:1
10,17:2
10,25:3
11,19:1
11,25:2
12,11:1
12,13:1
12,17:2
12,25:3
13,19:1
13,25:2
14,5:2
14,10:2
14,11:3
14,12:2
14,13:3
14,17:4
14,19:4
14,25:5
15,1:1
15,2:1
15,5:3
15,10:3
15,11:4
15,12:3
15,13:4
15,14:1
15,16:1
15,17:5
15,18:1
15,25:6
15,26:1
16,5:2
16,10:2
16,11:3
16,12:2
16,13:3
16,17:4
16,19:4
16,25:5
17,25:1
18,5:2
18,10:2
18,11:3
18,12:2
18,13:3
18,17:4
18,19:4
18,25:5
19,25:1
20,1:2
20,2:2
20,5:4
20,8:1
20,10:4
20,11:5
20,12:4
20,13:5
20,14:2
20,15:1
20,16:2
20,17:6
20,18:2
20,19:6
20,25:7
20,26:2
21,1:2
21,2:2
21,5:4
21,8:1
21,10:4
21,11:5
21,12:4
21,13:5
21,14:2
21,15:1
21,16:2
21,17:6
21,18:2
21,19:6
21,25:7
21,26:2
22,1:2
22,2:2
22,5:4
22,8:1
22,10:4
22,11:5
22,12:4
22,13:5
22,14:2
22,15:1
22,16:2
22,17:6
22,18:2
22,19:6
22,25:7
22,26:2
23,11:1
23,13:1
23,17:2
23,19:2
23,25:3
26,5:2
26,10:2
26,11:3
26,12:2
26,13:3
26,17:4
26,19:4
26,23:2
26,24:5
26,25:5
26,28:1
27,1:2
27,2:2
27,5:4
27,8:1
27,10:4
27,11:5
27,12:4
27,13:5
27,14:2
27,15:1
27,16:2
27,17:6
27,18:2
27,19:6
27,23:4
27,24:7
27,25:7
27,26:2
27,28:3
28,5:1
28,10:1
28,11:2
28,12:1
28,13:2
28,17:3
28,19:3
28,23:1
28,24:4
28,25:4
29,5:1
29,10:1
29,11:2
29,12:1
29,13:2
29,17:3
29,19:3
29,23:1
29,24:4
29,25:4

<end>

<optimal SALBP-1 value>
12


<rand seed>
467321153

